
  12    4
  10   10   10   10

   0   0   0   0   0   2 2 3 
  10  10  10  10  10   2 6 4 
   9  10  10  10  10   2 5 4 
   8  10  10  10  10   1 7 
   8  10  10  10  10   1 7 
  10  10  10  10  10   1 7 
   2  10  10  10  10   2 9 8 
   4  10  10  10  10   2 11 10 
   5  10  10  10  10   1 10 
   4  10  10  10  10   1 12
   1  10  10  10  10   1 12
   0   0   0   0   0   0 
